webassembly/ejemplos_dzn/16/folder16_json_53.dzn
TERM = { '.', 's(5)', 'in_10', 'in_1', 'in_6', 'in_9', 'in_0', 's(4)', 'in_3', 's(1)', 's(7)', 'in_11', 's(2)', 'in_2', 'in_8', 's(6)', 's(0)', 's(3)', 'local_0', 'local_1', 'in_4', 'in_7', 'in_5'};
null = '.';
s = 16;
n = 17;
ndeps = 11;
max_registers_sz = 4;
NR = 1;
registers = [|'local_1', 'local_0'|];
dependencies = [|'i32.store_0', 'i32.load16_s_1', |'i32.load16_s_1', 'i32.store_4', |'i32.store_4', 'i32.load16_s_8', |'i32.store_4', 'i32.load8_s_9', |'i32.load16_s_8', 'i32.store16_10', |'i32.load8_s_9', 'i32.store16_10', |'i32.store16_10', 'i32.load16_u_11', |'i32.load16_u_11', 'call[function_index(0)]_12', |'call[function_index(0)]_12', 'i32.store8_13', |'i32.store8_13', 'i32.load8_u_14', |'i32.store8_13', 'i32.load8_s_15'|];
GET_ENUM = { GET1, GET2, GET3, GET4, GET5};
SET_ENUM = { SET1, SET2, SET3, SET4, SET5};
TEE_ENUM = { TEE1, TEE2, TEE3, TEE4, TEE5};
N = 13;
OP = { 'call[function_index(0)]_12', 'i32.store_0', 'i32.load16_s_1', 'i32.sub_0', 'i32.store_4', 'i32.load16_s_8', 'i32.load8_s_9', 'i32.store16_10', 'i32.load16_u_11', 'i32.store8_13', 'i32.load8_u_14', 'i32.load8_s_15', 'local.get_0' };
in_ops = [3, 2, 1, 2, 2, 1, 1, 2, 1, 2, 1, 1, 0 ];
out_ops = [1, 0, 1, 1, 0, 1, 1, 0, 1, 0, 1, 1, 1 ];
in1 = ['s(4)', 'in_0', 'in_2', 's(0)', 's(1)', 'local_0', 's(2)', 's(3)', 'in_7', 's(5)', 'in_11', 's(6)', '.' ];
in2 = ['in_8', 'in_1', '.', 'in_3', 'in_4', '.', '.', 'in_6', '.', 'in_10', '.', '.', '.' ];
in3 = ['in_9', '.', '.', '.', '.', '.', '.', '.', '.', '.', '.', '.', '.' ];
out1 = ['s(5)', '.', 's(0)', 's(1)', '.', 's(2)', 's(3)', '.', 's(4)', '.', 's(6)', 's(7)', 'local_0' ];
out2 = ['.', '.', '.', '.', '.', '.', '.', '.', '.', '.', '.', '.', '.' ];
out3 = ['.', '.', '.', '.', '.', '.', '.', '.', '.', '.', '.', '.', '.' ];
comm = [false, false, false, false, false, false, false, false, false, false, false, false, false ];
gas = [1, 1, 1, 1, 1, 1, 1, 1, 1, 1, 1, 1, 1 ];
sz = [1, 1, 1, 1, 1, 1, 1, 1, 1, 1, 1, 1, 1 ];
stor = [true, true, false, false, true, false, false, true, false, true, false, false, false ];
lb = [ 1, 1, 1, 1, 1, 1, 1, 1, 1, 1, 1, 1, 1 ];
ub = [ 16, 16, 16, 16, 16, 16, 16, 16, 16, 16, 16, 16, 16 ];
startstack = [ 'in_0', 'in_1', 'in_2', 'in_3', 'in_4', 'in_5', 'in_6', 'in_7', 'in_8', 'in_9', 'in_10', 'in_11', null, null, null, null, null ];
endstack = [ 's(7)', null, null, null, null, null, null, null, null, null, null, null, null, null, null, null, null ];
