webassembly/ejemplos_results/folder16_json_53.txt
value = 16;
fgas = [1, 1, 1, 1, 1, 1, 1, 1, 1, 1, 1, 1, 1, 2, 1, 1];
fsize = [1, 1, 1, 1, 1, 1, 1, 1, 1, 1, 1, 1, 1, 1, 1, 1];
states = 
[|    in_0,   in_1,  in_2,  in_3,  in_4,  in_5,  in_6,  in_7,  in_8,  in_9, in_10, in_11, '.', '.', '.', '.',    '.'
 |    in_7,   in_3,  in_4,  in_5,  in_6,  in_7,  in_8,  in_9, in_10, in_11,   '.',   '.', '.', '.', '.', '.', 's(7)'
 |  's(4)',   in_7,  in_4,  in_5,  in_6,  in_7,  in_8,  in_9, in_10, in_11,   '.',   '.', '.', '.', '.', '.', 's(7)'
 | local_0,   in_7,  in_7,  in_4,  in_5,  in_6,  in_7,  in_8,  in_9, in_10, in_11,   '.', '.', '.', '.', '.',    '.'
 |  's(2)',   in_5,  in_7,  in_4,  in_5,  in_6,  in_7,  in_8,  in_9, in_10, in_11,   '.', '.', '.', '.', '.',    '.'
 |  's(3)',   in_6,  in_7,  in_4,  in_5,  in_6,  in_7,  in_8,  in_9, in_10, in_11,   '.', '.', '.', '.', '.',    '.'
 |   in_11,   in_4,  in_5,  in_6,  in_7,  in_8,  in_9, in_10, in_11,   '.',   '.',   '.', '.', '.', '.', '.',   in_5
 |  's(6)',   in_7,  in_5,  in_6,  in_7,  in_8,  in_9, in_10, in_11,   '.',   '.',   '.', '.', '.', '.', '.',   in_5
 |  's(7)',   in_3,  in_5,  in_6,  in_7,  in_8,  in_9, in_10, in_11,   '.',   '.',   '.', '.', '.', '.', '.',   in_5
 | local_0, 's(0)',  in_3,  in_5,  in_6,  in_7,  in_8,  in_9, in_10, in_11,   '.',   '.', '.', '.', '.', '.',    '.'
 |  's(0)',   in_3,  in_5,  in_6,  in_7,  in_8,  in_9, in_10, in_11,   '.',   '.',   '.', '.', '.', '.', '.',    '.'
 |  's(1)',   in_4,  in_6,  in_7,  in_8,  in_9, in_10, in_11,   '.',   '.',   '.',   '.', '.', '.', '.', '.',    '.'
 |    in_2,   in_7,  in_8,  in_9, in_10, in_11,   '.',   '.',   '.',   '.',   '.',   '.', '.', '.', '.', '.',    '.'
 |  's(0)', 's(4)',  in_8,  in_9, in_10, in_11,   '.',   '.',   '.',   '.',   '.',   '.', '.', '.', '.', '.',    '.'
 |  's(4)',   in_8,  in_9, in_10, in_11,   '.',   '.',   '.',   '.',   '.',   '.',   '.', '.', '.', '.', '.',    '.'
 |  's(5)',  in_10, in_11,   '.',   '.',   '.',   '.',   '.',   '.',   '.',   '.',   '.', '.', '.', '.', '.',    '.'
 |  's(7)',    '.',   '.',   '.',   '.',   '.',   '.',   '.',   '.',   '.',   '.',   '.', '.', '.', '.', '.',    '.'
 |];
register_states = 
[| local_1, '.', '.', '.', '.'
 | local_1, '.', '.', '.', '.'
 | local_1, '.', '.', '.', '.'
 | local_1, '.', '.', '.', '.'
 | local_1, '.', '.', '.', '.'
 | local_1, '.', '.', '.', '.'
 | local_1, '.', '.', '.', '.'
 | local_1, '.', '.', '.', '.'
 | local_1, '.', '.', '.', '.'
 | local_1, '.', '.', '.', '.'
 | local_0, '.', '.', '.', '.'
 | local_0, '.', '.', '.', '.'
 | local_0, '.', '.', '.', '.'
 | local_0, '.', '.', '.', '.'
 | local_0, '.', '.', '.', '.'
 | local_0, '.', '.', '.', '.'
 | local_0, '.', '.', '.', '.'
 |];
program = [O('i32.store_0'), O('i32.load16_u_11'), O('local.get_0'), O('i32.load16_s_8'), O('i32.load8_s_9'), O('i32.store16_10'), O('i32.load8_u_14'), O('i32.load8_s_15'), O('local.get_0'), S(SET1), O('i32.sub_0'), O('i32.store_4'), O('i32.load16_s_1'), POP, O('call[function_index(0)]_12'), O('i32.store8_13')];
% time elapsed: 0.47 s
----------
value = 15;
fgas = [1, 1, 1, 1, 1, 1, 1, 1, 1, 1, 1, 1, 1, 1, 1, 0];
fsize = [1, 1, 1, 1, 1, 1, 1, 1, 1, 1, 1, 1, 1, 1, 1, 1];
states = 
[|    in_0,   in_1,  in_2,  in_3,  in_4,  in_5,  in_6,  in_7,  in_8,  in_9, in_10, in_11, '.', '.', '.', '.',  '.'
 |  's(0)',   in_3,  in_4,  in_5,  in_6,  in_7,  in_8,  in_9, in_10, in_11,   '.',   '.', '.', '.', '.', '.',  '.'
 |  's(1)',   in_4,  in_5,  in_6,  in_7,  in_8,  in_9, in_10, in_11,   '.',   '.',   '.', '.', '.', '.', '.',  '.'
 |    in_2,   in_6,  in_7,  in_8,  in_9, in_10, in_11,   '.',   '.',   '.',   '.',   '.', '.', '.', '.', '.', in_1
 |  's(0)',  in_10,  in_7,  in_8,  in_9, in_10, in_11,   '.',   '.',   '.',   '.',   '.', '.', '.', '.', '.', in_1
 | local_0, 's(5)', in_10,  in_7,  in_8,  in_9, in_10, in_11,   '.',   '.',   '.',   '.', '.', '.', '.', '.',  '.'
 |  's(5)',  in_10,  in_7,  in_8,  in_9, in_10, in_11,   '.',   '.',   '.',   '.',   '.', '.', '.', '.', '.',  '.'
 |    in_7,   in_8,  in_9, in_10, in_11,   '.',   '.',   '.',   '.',   '.',   '.',   '.', '.', '.', '.', '.',  '.'
 |  's(4)',   in_8,  in_9, in_10, in_11,   '.',   '.',   '.',   '.',   '.',   '.',   '.', '.', '.', '.', '.',  '.'
 |  's(5)',   in_5, in_11,   '.',   '.',   '.',   '.',   '.',   '.',   '.',   '.',   '.', '.', '.', '.', '.', in_5
 | local_0,   in_5,  in_5, in_11,   '.',   '.',   '.',   '.',   '.',   '.',   '.',   '.', '.', '.', '.', '.',  '.'
 |  's(2)',   in_7,  in_5, in_11,   '.',   '.',   '.',   '.',   '.',   '.',   '.',   '.', '.', '.', '.', '.',  '.'
 |  's(3)',   in_6,  in_5, in_11,   '.',   '.',   '.',   '.',   '.',   '.',   '.',   '.', '.', '.', '.', '.',  '.'
 |   in_11,  in_11,   '.',   '.',   '.',   '.',   '.',   '.',   '.',   '.',   '.',   '.', '.', '.', '.', '.',  '.'
 |  's(6)',   in_4,   '.',   '.',   '.',   '.',   '.',   '.',   '.',   '.',   '.',   '.', '.', '.', '.', '.',  '.'
 |  's(7)',    '.',   '.',   '.',   '.',   '.',   '.',   '.',   '.',   '.',   '.',   '.', '.', '.', '.', '.',  '.'
 |  's(7)',    '.',   '.',   '.',   '.',   '.',   '.',   '.',   '.',   '.',   '.',   '.', '.', '.', '.', '.',  '.'
 |];
register_states = 
[| local_1, '.', '.', '.', '.'
 | local_1, '.', '.', '.', '.'
 | local_1, '.', '.', '.', '.'
 | local_1, '.', '.', '.', '.'
 | local_1, '.', '.', '.', '.'
 | local_1, '.', '.', '.', '.'
 | local_0, '.', '.', '.', '.'
 | local_0, '.', '.', '.', '.'
 | local_0, '.', '.', '.', '.'
 | local_0, '.', '.', '.', '.'
 | local_0, '.', '.', '.', '.'
 | local_0, '.', '.', '.', '.'
 | local_0, '.', '.', '.', '.'
 | local_0, '.', '.', '.', '.'
 | local_0, '.', '.', '.', '.'
 | local_0, '.', '.', '.', '.'
 | local_0, '.', '.', '.', '.'
 |];
program = [O('i32.store_0'), O('i32.sub_0'), O('i32.store_4'), O('i32.load16_s_1'), O('local.get_0'), S(SET1), O('i32.store8_13'), O('i32.load16_u_11'), O('call[function_index(0)]_12'), O('local.get_0'), O('i32.load16_s_8'), O('i32.load8_s_9'), O('i32.store16_10'), O('i32.load8_u_14'), O('i32.load8_s_15'), NOP];
% time elapsed: 0.95 s
----------
=====UNKNOWN=====
% time elapsed: 0.99 s
